Problem:    
Rows:       36
Columns:    68 (68 integer, 3 binary)
Non-zeros:  146
Status:     INTEGER OPTIMAL
Objective:  obj = 334 (MAXimum)

   No.   Row name        Activity     Lower bound   Upper bound
------ ------------    ------------- ------------- -------------
     1 c1                          3                           3 
     2 c2                          1                           7 
     3 c3                          3                           5 
     4 c4                          3                           7 
     5 c5                          3                           5 
     6 c6                          8                          10 
     7 c7                          0             0             = 
     8 c8                          0             0             = 
     9 c9                          0             0             = 
    10 c10                         0             0             = 
    11 c11                         0             0             = 
    12 c12                         0             0             = 
    13 c13                         0             0             = 
    14 c14                         0             0             = 
    15 c15                         0             0             = 
    16 c16                         0             0             = 
    17 c17                         0             0             = 
    18 c18                         0             0             = 
    19 c19                         0             0             = 
    20 c20                         0             0             = 
    21 c21                         0             0             = 
    22 c22                         0             0             = 
    23 c23                         0             0             = 
    24 c24                         0             0             = 
    25 c25                         0             0             = 
    26 c26                         0             0             = 
    27 c27                         0             0             = 
    28 c28                         0             0             = 
    29 c29                         0             0             = 
    30 c30                         0             0             = 
    31 c31                         3                          20 
    32 c32                         1                          20 
    33 c33                         1                          20 
    34 c34                         3                          20 
    35 c35                         1                          20 
    36 c36                         1                          20 

   No. Column name       Activity     Lower bound   Upper bound
------ ------------    ------------- ------------- -------------
     1 f_0_0_1      *              3             0             3 
     2 f_1_0_5      *              1             0             7 
     3 f_0_4_13     *              1             0             1 
     4 f_1_4_13     *              0             0             = 
     5 f_0_10_13    *              1             0             2 
     6 f_1_10_13    *              0             0             = 
     7 f_0_12_13    *              1             0             1 
     8 f_1_12_13    *              0             0             = 
     9 f_0_8_13     *              0             0             3 
    10 f_1_8_13     *              1             0             1 
    11 f_0_6_1      *              0             0            10 
    12 f_0_8_1      *              0             0            10 
    13 f_0_12_1     *              0             0            10 
    14 f_0_1_2      *              3             0            20 
    15 f_0_2_5      *              0             0            10 
    16 f_0_2_7      *              2             0            10 
    17 f_0_2_11     *              1             0            10 
    18 f_0_6_3      *              0             0            10 
    19 f_0_8_3      *              1             0            10 
    20 f_0_10_3     *              0             0            10 
    21 f_0_3_4      *              1             0            20 
    22 f_0_4_5      *              0             0            10 
    23 f_0_4_7      *              0             0            10 
    24 f_0_4_9      *              0             0            10 
    25 f_0_0_5      *              0             0             = 
    26 f_0_8_5      *              0             0            10 
    27 f_0_10_5     *              0             0            10 
    28 f_0_12_5     *              0             0            10 
    29 f_0_5_6      *              0             0            20 
    30 f_0_6_7      *              0             0            10 
    31 f_0_6_9      *              0             0            10 
    32 f_0_6_11     *              0             0            10 
    33 f_0_10_7     *              0             0            10 
    34 f_0_12_7     *              0             0            10 
    35 f_0_7_8      *              2             0            20 
    36 f_0_8_9      *              1             0            10 
    37 f_0_8_11     *              0             0            10 
    38 f_0_9_10     *              1             0            20 
    39 f_0_11_12    *              1             0            20 
    40 f_1_0_1      *              0             0             = 
    41 f_1_6_1      *              0             0            10 
    42 f_1_8_1      *              0             0            10 
    43 f_1_12_1     *              0             0            10 
    44 f_1_1_2      *              0             0            20 
    45 f_1_2_5      *              0             0            10 
    46 f_1_2_7      *              0             0            10 
    47 f_1_2_11     *              0             0            10 
    48 f_1_6_3      *              0             0            10 
    49 f_1_8_3      *              0             0            10 
    50 f_1_10_3     *              0             0            10 
    51 f_1_3_4      *              0             0            20 
    52 f_1_4_5      *              0             0            10 
    53 f_1_4_7      *              0             0            10 
    54 f_1_4_9      *              0             0            10 
    55 f_1_8_5      *              0             0            10 
    56 f_1_10_5     *              0             0            10 
    57 f_1_12_5     *              0             0            10 
    58 f_1_5_6      *              1             0            20 
    59 f_1_6_7      *              1             0            10 
    60 f_1_6_9      *              0             0            10 
    61 f_1_6_11     *              0             0            10 
    62 f_1_10_7     *              0             0            10 
    63 f_1_12_7     *              0             0            10 
    64 f_1_7_8      *              1             0            20 
    65 f_1_8_9      *              0             0            10 
    66 f_1_8_11     *              0             0            10 
    67 f_1_9_10     *              0             0            20 
    68 f_1_11_12    *              0             0            20 

Integer feasibility conditions:

KKT.PE: max.abs.err = 0.00e+00 on row 0
        max.rel.err = 0.00e+00 on row 0
        High quality

KKT.PB: max.abs.err = 0.00e+00 on row 0
        max.rel.err = 0.00e+00 on row 0
        High quality

End of output
